db/data/127342095177971645815251123731909619352.z3.out
-------------------
2500.179110099
